setgridsize(175,74,1)
setcellsize(1e-9,1e-9,1e-9)
a:= Rect(101e-9,74e-9)
b:= Circle(74e-9).transl(-50.5e-9,0,0)
c:= Circle(74e-9).transl(50.5e-9,0,0)
setgeom(b.add(a.add(c)))
Msat = 580e3
Aex = 15e-12
Dind = 3e-3
Ku1 = 0.8e6
Temp = 300
AnisU = vector(0,0,1)
alpha = 0.3
m = neelskyrmion(-1,1).transl(0,0,0)
minimize()
autosave(m,20e-12)
tableAutosave(20e-12)
tableAdd(ext_bubblepos)
run(100e-9)
